sat
(= col_1 0b1101010100)
(= row_2 0b0010101011)
(= row_7 0b1100110100)
(= row_3 0b1001101100)
(= col_3 0b1100101100)
(= col_7 0b1100110100)
(= col_8 0b0010110011)
(= row_4 0b0110010110)
(= col_2 0b0010011011)
(= row_5 0b0110101001)
(= row_6 0b1001010011)
(= row_8 0b0011001011)
(= row_9 0b0010011011)
(= col_9 0b0011001011)
(= row_1 0b1101010100)
(= col_0 0b1101100100)
(= row_0 0b1101100100)
(= col_4 0b1011010010)
(= col_5 0b0010101101)
(= col_6 0b0101001011)
